certificates/rado_a13_c272_N24.cnf
c Rad2 upper bound instance: x1 + 13*x2 - x3 = 272, interval [1,24]
p cnf 24 90
1 2 21 0
-1 -2 -21 0
1 15 22 0
-1 -15 -22 0
2 3 21 0
-2 -3 -21 0
2 16 22 0
-2 -16 -22 0
3 4 21 0
-3 -4 -21 0
3 17 22 0
-3 -17 -22 0
4 5 21 0
-4 -5 -21 0
4 18 22 0
-4 -18 -22 0
5 6 21 0
-5 -6 -21 0
5 19 22 0
-5 -19 -22 0
6 7 21 0
-6 -7 -21 0
6 20 22 0
-6 -20 -22 0
7 8 21 0
-7 -8 -21 0
7 21 22 0
-7 -21 -22 0
8 9 21 0
-8 -9 -21 0
8 22 0
-8 -22 0
9 10 21 0
-9 -10 -21 0
9 22 23 0
-9 -22 -23 0
10 11 21 0
-10 -11 -21 0
10 22 24 0
-10 -22 -24 0
11 12 21 0
-11 -12 -21 0
12 13 21 0
-12 -13 -21 0
1 13 20 0
-1 -13 -20 0
13 14 21 0
-13 -14 -21 0
2 14 20 0
-2 -14 -20 0
14 15 21 0
-14 -15 -21 0
3 15 20 0
-3 -15 -20 0
15 16 21 0
-15 -16 -21 0
4 16 20 0
-4 -16 -20 0
16 17 21 0
-16 -17 -21 0
5 17 20 0
-5 -17 -20 0
17 18 21 0
-17 -18 -21 0
6 18 20 0
-6 -18 -20 0
18 19 21 0
-18 -19 -21 0
7 19 20 0
-7 -19 -20 0
19 20 21 0
-19 -20 -21 0
8 20 0
-8 -20 0
20 21 0
-20 -21 0
9 20 21 0
-9 -20 -21 0
21 22 0
-21 -22 0
10 20 22 0
-10 -20 -22 0
21 22 23 0
-21 -22 -23 0
11 20 23 0
-11 -20 -23 0
21 23 24 0
-21 -23 -24 0
12 20 24 0
-12 -20 -24 0
