certificates/rado_a13_c272_N24.drat
-23 -24 0
d -23 -21 -24 0
-22 -24 0
-24 0
22 0
-8 0
-21 0
7 0
9 0
20 0
23 0
-19 0
0
